3782 7421
4699 960
9853 6724
1035 4050
7506 7030
2177 8190
3701 4366
2415 2039
4831 4734
5410 9688
8520 4254
6431 246
7270 9410
2527 5441
6282 7896
4339 3292
1781 2000
1307 5414
5001 2273
4879 3089
9248 4446
6658 9165
8590 654
4855 3912
4256 5609
7126 4962
6470 3931
1558 9773
3512 6564
3997 4284
9157 1756
5784 6877
9870 6085
6539 2685
2860 3147
7298 4369
6741 101
7544 6911
6882 6032
9750 3911
5372 8265
5562 9277
7689 8415
4376 8444
6598 4174
3713 6486
9107 2752
8454 6183
5143 5278
5131 3638
